Minimize
  obj: x0 + x1 + x2 + x3 + x4 + x5 + x6 + x7

Subject To
  c0: x3 + x4 + x5 = 23
  c1: x0 + x1 + x2 + x3 + x4 + x6 = 43
  c2: x0 + x2 + x3 + x5 + x6 = 46
  c3: x0 + x1 + x2 + x3 + x4 + x6 + x7 = 60
  c4: x2 + x3 + x4 + x5 + x6 + x7 = 51
  c5: x0 + x2 + x3 + x4 + x7 = 48
  c6: x0 + x1 + x3 + x5 + x6 + x7 = 64
  c7: x0 + x2 + x3 + x4 + x5 + x7 = 53
  c8: x0 + x1 + x4 + x5 + x7 = 37
  c9: x0 + x1 + x3 + x4 + x5 + x6 = 48

Bounds
  x0 >= 0
  x1 >= 0
  x2 >= 0
  x3 >= 0
  x4 >= 0
  x5 >= 0
  x6 >= 0
  x7 >= 0

Generals
  x0 x1 x2 x3 x4 x5 x6 x7

End
